12
1 0 21
2 0 21
2 1 24
3 0 3
3 1 38
3 2 5
4 0 41
4 1 23
4 2 6
4 3 12
5 0 39
5 1 38
5 2 9
5 3 6
5 4 15
6 0 12
6 1 13
6 2 5
6 3 42
6 4 21
6 5 1
7 0 25
7 1 4
7 2 18
7 3 18
7 4 44
7 5 42
7 6 23
8 0 11
8 1 13
8 2 40
8 3 39
8 4 10
8 5 9
8 6 17
8 7 37
9 0 38
9 1 36
9 2 13
9 3 15
9 4 3
9 5 9
9 6 36
9 7 25
9 8 31
10 0 33
10 1 44
10 2 39
10 3 21
10 4 42
10 5 8
10 6 3
10 7 28
10 8 9
10 9 5
11 0 27
11 1 19
11 2 15
11 3 2
11 4 44
11 5 29
11 6 36
11 7 29
11 8 36
11 9 10
11 10 30
